(set-info :smt-lib-version 2.6)
(set-logic QF_S)
(set-info :source |
Generated by: Murphy Berzish, Mitja Kulczynski, Federico Mora, Florin Manea, Joel Day, Dirk Nowotka, Vijay Ganesh, Zhengyang Lu
Generated on: 2020-10-01
Description: Translated from a collection of real-world regex queries, AutomataArk, collected by Loris D’Antoni and Fang Wang: https://github.com/lorisdanto/automatark
Application: Evaluate solvers on real-world regex queries
Target solver: Z3str3RE, CVC4, OSTRICH, Z3seq, Z3str3, Z3-Trau
Publications: Berzish, M., Kulczynski, M., Mora, F., Manea, F., Day, J. D., Nowotka, D., & Ganesh, V. (2021, July). An SMT solver for regular expressions and linear arithmetic over string length. In CAV 2021.
|)
(set-info :license "https://creativecommons.org/licenses/by/4.0/")
(set-info :category "industrial")
(set-info :status sat)

(declare-const X String)
(assert (str.in_re X (re.++ (str.to_re "/filename=") (re.* (re.comp (str.to_re "\u{a}"))) (str.to_re ".wri/i\u{a}"))))
(assert (not (str.in_re X (re.++ (re.union (re.++ (re.union (re.++ (re.union (re.++ (re.union (re.++ (str.to_re "jan") (re.opt (str.to_re "uary"))) (re.++ (str.to_re "mar") (re.opt (str.to_re "ch"))) (str.to_re "may") (re.++ (str.to_re "jul") (re.opt (str.to_re "y"))) (re.++ (str.to_re "aug") (re.opt (str.to_re "ust"))) (re.++ (str.to_re "oct") (re.opt (str.to_re "ober"))) (re.++ (str.to_re "dec") (re.opt (str.to_re "ember")))) (str.to_re " ") (re.union (re.++ (str.to_re "3") (re.union (str.to_re "0") (str.to_re "1"))) (str.to_re "29"))) (re.++ (re.union (re.++ (str.to_re "apr") (re.opt (str.to_re "il"))) (re.++ (str.to_re "jun") (re.opt (str.to_re "e"))) (re.++ (str.to_re "sep") (re.opt (str.to_re "tember"))) (re.++ (str.to_re "nov") (re.opt (str.to_re "ember")))) (str.to_re " ") (re.union (str.to_re "30") (str.to_re "29"))) (re.++ (re.union (re.++ (str.to_re "jan") (re.opt (str.to_re "uary"))) (re.++ (str.to_re "feb") (re.opt (str.to_re "ruary"))) (re.++ (str.to_re "mar") (re.opt (str.to_re "ch"))) (re.++ (str.to_re "apr") (re.opt (str.to_re "il"))) (str.to_re "may") (re.++ (str.to_re "jun") (re.opt (str.to_re "e"))) (re.++ (str.to_re "jul") (re.opt (str.to_re "y"))) (re.++ (str.to_re "aug") (re.opt (str.to_re "ust"))) (re.++ (str.to_re "sep") (re.opt (str.to_re "tember"))) (re.++ (str.to_re "oct") (re.opt (str.to_re "ober"))) (re.++ (str.to_re "nov") (re.opt (str.to_re "ember"))) (re.++ (str.to_re "dec") (re.opt (str.to_re "ember")))) (str.to_re " ") (re.union (re.++ (str.to_re "2") (re.range "0" "8")) (re.++ (str.to_re "1") (re.range "0" "9")) (re.++ (re.opt (str.to_re "0")) (re.range "1" "9"))))) (re.opt (str.to_re ",")) (str.to_re " ")) (re.++ (re.union (re.++ (re.union (re.++ (str.to_re "1") (re.union (str.to_re "0") (str.to_re "2"))) (re.++ (re.opt (str.to_re "0")) (re.union (str.to_re "1") (str.to_re "3") (str.to_re "5") (str.to_re "7") (str.to_re "8")))) (re.union (str.to_re ".") (str.to_re "-") (str.to_re "/")) (re.union (re.++ (str.to_re "3") (re.union (str.to_re "0") (str.to_re "1"))) (str.to_re "29"))) (re.++ (re.union (str.to_re "11") (re.++ (re.opt (str.to_re "0")) (re.union (str.to_re "4") (str.to_re "6") (str.to_re "9")))) (re.union (str.to_re ".") (str.to_re "-") (str.to_re "/")) (re.union (str.to_re "30") (str.to_re "29"))) (re.++ (re.union (re.++ (str.to_re "1") (re.range "0" "2")) (re.++ (re.opt (str.to_re "0")) (re.range "1" "9"))) (re.union (str.to_re ".") (str.to_re "-") (str.to_re "/")) (re.union (re.++ (str.to_re "2") (re.range "0" "8")) (re.++ (str.to_re "1") (re.range "0" "9")) (re.++ (re.opt (str.to_re "0")) (re.range "1" "9"))))) (re.union (str.to_re ".") (str.to_re "-") (str.to_re "/"))) (re.++ (re.union (re.++ (re.union (re.++ (str.to_re "3") (re.union (str.to_re "0") (str.to_re "1"))) (str.to_re "29")) (re.union (str.to_re " ") (str.to_re "-") (str.to_re ".") (str.to_re "/")) (re.union (re.++ (str.to_re "jan") (re.opt (str.to_re "uary"))) (re.++ (str.to_re "mar") (re.opt (str.to_re "ch"))) (str.to_re "may") (re.++ (str.to_re "jul") (re.opt (str.to_re "y"))) (re.++ (str.to_re "aug") (re.opt (str.to_re "ust"))) (re.++ (str.to_re "oct") (re.opt (str.to_re "ober"))) (re.++ (str.to_re "dec") (re.opt (str.to_re "ember"))))) (re.++ (re.union (str.to_re "30") (str.to_re "29")) (re.union (str.to_re " ") (str.to_re ".") (str.to_re "-") (str.to_re "/")) (re.union (re.++ (str.to_re "apr") (re.opt (str.to_re "il"))) (re.++ (str.to_re "jun") (re.opt (str.to_re "e"))) (re.++ (str.to_re "sep") (re.opt (str.to_re "tember"))) (re.++ (str.to_re "nov") (re.opt (str.to_re "ember"))))) (re.++ (re.union (re.++ (str.to_re "2") (re.range "0" "8")) (re.++ (str.to_re "1") (re.range "0" "9")) (re.++ (re.opt (str.to_re "0")) (re.range "1" "9"))) (re.union (str.to_re " ") (str.to_re ".") (str.to_re "-") (str.to_re "/")) (re.union (re.++ (str.to_re "jan") (re.opt (str.to_re "uary"))) (re.++ (str.to_re "feb") (re.opt (str.to_re "ruary"))) (re.++ (str.to_re "mar") (re.opt (str.to_re "ch"))) (re.++ (str.to_re "apr") (re.opt (str.to_re "il"))) (str.to_re "may") (re.++ (str.to_re "jun") (re.opt (str.to_re "e"))) (re.++ (str.to_re "jul") (re.opt (str.to_re "y"))) (re.++ (str.to_re "aug") (re.opt (str.to_re "ust"))) (re.++ (str.to_re "sep") (re.opt (str.to_re "tember"))) (re.++ (str.to_re "oct") (re.opt (str.to_re "ober"))) (re.++ (str.to_re "nov") (re.opt (str.to_re "ember"))) (re.++ (str.to_re "dec") (re.opt (str.to_re "ember")))))) (re.union (str.to_re " ") (str.to_re "-") (str.to_re ".") (str.to_re "/"))) (re.++ (re.union (re.++ (str.to_re "3") (re.union (str.to_re "0") (str.to_re "1"))) (str.to_re "29")) (re.union (str.to_re "jan") (str.to_re "mar") (str.to_re "may") (str.to_re "jul") (str.to_re "aug") (str.to_re "oct") (str.to_re "dec"))) (re.++ (re.union (str.to_re "30") (str.to_re "29")) (re.union (str.to_re "apr") (str.to_re "jun") (str.to_re "sep") (str.to_re "nov"))) (re.++ (re.union (re.++ (str.to_re "2") (re.range "0" "8")) (re.++ (str.to_re "1") (re.range "0" "9")) (re.++ (str.to_re "0") (re.range "1" "9"))) (re.union (str.to_re "jan") (str.to_re "feb") (str.to_re "mar") (str.to_re "apr") (str.to_re "may") (str.to_re "jun") (str.to_re "jul") (str.to_re "aug") (str.to_re "sep") (str.to_re "oct") (str.to_re "nov") (str.to_re "dec")))) (re.union ((_ re.loop 2 2) (re.range "0" "9")) (re.++ (str.to_re "175") (re.range "3" "9")) (re.++ (str.to_re "17") (re.range "6" "9") (re.range "0" "9")) (re.++ (str.to_re "1") (re.union (str.to_re "8") (str.to_re "9")) ((_ re.loop 2 2) (re.range "0" "9"))) (re.++ (re.range "2" "9") ((_ re.loop 3 3) (re.range "0" "9"))))) (re.++ (re.union ((_ re.loop 2 2) (re.range "0" "9")) (re.++ (str.to_re "175") (re.range "3" "9")) (re.++ (str.to_re "17") (re.range "6" "9") (re.range "0" "9")) (re.++ (str.to_re "1") (re.union (str.to_re "8") (str.to_re "9")) ((_ re.loop 2 2) (re.range "0" "9"))) (re.++ (re.range "2" "9") ((_ re.loop 3 3) (re.range "0" "9")))) (re.union (re.++ (re.union (re.++ (str.to_re "1") (re.union (str.to_re "0") (str.to_re "2"))) (re.++ (str.to_re "0") (re.union (str.to_re "1") (str.to_re "3") (str.to_re "5") (str.to_re "7") (str.to_re "8")))) (re.union (re.++ (str.to_re "3") (re.union (str.to_re "0") (str.to_re "1"))) (str.to_re "29"))) (re.++ (re.union (str.to_re "11") (re.++ (str.to_re "0") (re.union (str.to_re "4") (str.to_re "6") (str.to_re "9")))) (re.union (str.to_re "30") (str.to_re "29"))) (re.++ (re.union (re.++ (str.to_re "1") (re.range "0" "2")) (re.++ (str.to_re "0") (re.range "1" "9"))) (re.union (re.++ (str.to_re "2") (re.range "0" "8")) (re.++ (str.to_re "1") (re.range "0" "9")) (re.++ (str.to_re "0") (re.range "1" "9")))))) (re.++ (re.union (str.to_re "29feb") (re.++ (str.to_re "29") (re.union (str.to_re " ") (str.to_re ".") (str.to_re "-") (str.to_re "/")) (str.to_re "feb") (re.opt (str.to_re "ruary")) (re.union (str.to_re " ") (str.to_re ".") (str.to_re "-") (str.to_re "/"))) (re.++ (str.to_re "feb") (re.opt (str.to_re "ruary")) (str.to_re " 29") (re.opt (str.to_re ",")) (re.opt (str.to_re " "))) (re.++ (re.opt (str.to_re "0")) (str.to_re "2") (re.union (str.to_re ".") (str.to_re "-") (str.to_re "/")) (str.to_re "29") (re.union (str.to_re ".") (str.to_re "-") (str.to_re "/")))) (re.union (re.++ (re.union (re.++ (re.union (str.to_re "2") (str.to_re "4") (str.to_re "6") (str.to_re "8")) (re.union (str.to_re "0") (str.to_re "4") (str.to_re "8"))) (re.++ (re.union (str.to_re "3") (str.to_re "5") (str.to_re "7") (str.to_re "9")) (re.union (str.to_re "2") (str.to_re "6")))) (str.to_re "00")) (re.++ (str.to_re "17") (re.union (str.to_re "56") (re.++ (re.union (str.to_re "6") (str.to_re "8")) (re.union (str.to_re "0") (str.to_re "4") (str.to_re "8"))) (re.++ (re.union (str.to_re "7") (str.to_re "9")) (re.union (str.to_re "2") (str.to_re "6"))))) (re.++ (re.union (re.++ (str.to_re "1") (re.union (str.to_re "8") (str.to_re "9"))) (re.++ (re.range "2" "9") (re.range "0" "9"))) (re.union (re.++ (re.union (str.to_re "2") (str.to_re "4") (str.to_re "6") (str.to_re "8")) (re.union (str.to_re "0") (str.to_re "4") (str.to_re "8"))) (re.++ (re.union (str.to_re "1") (str.to_re "3") (str.to_re "5") (str.to_re "7") (str.to_re "9")) (re.union (str.to_re "2") (str.to_re "6"))) (re.++ (str.to_re "0") (re.union (str.to_re "4") (str.to_re "8"))))) (re.++ (re.union (str.to_re "0") (str.to_re "2") (str.to_re "4") (str.to_re "6") (str.to_re "8")) (re.union (str.to_re "0") (str.to_re "4") (str.to_re "8"))) (re.++ (re.union (str.to_re "1") (str.to_re "3") (str.to_re "5") (str.to_re "7") (str.to_re "9")) (re.union (str.to_re "2") (str.to_re "6"))))) (re.++ (re.union (re.++ (re.union (re.++ (re.union (str.to_re "2") (str.to_re "4") (str.to_re "6") (str.to_re "8")) (re.union (str.to_re "0") (str.to_re "4") (str.to_re "8"))) (re.++ (re.union (str.to_re "3") (str.to_re "5") (str.to_re "7") (str.to_re "9")) (re.union (str.to_re "2") (str.to_re "6")))) (str.to_re "00")) (re.++ (str.to_re "17") (re.union (str.to_re "56") (re.++ (re.union (str.to_re "6") (str.to_re "8")) (re.union (str.to_re "0") (str.to_re "4") (str.to_re "8"))) (re.++ (re.union (str.to_re "7") (str.to_re "9")) (re.union (str.to_re "2") (str.to_re "6"))))) (re.++ (re.union (re.++ (str.to_re "1") (re.union (str.to_re "8") (str.to_re "9"))) (re.++ (re.range "2" "9") (re.range "0" "9"))) (re.union (re.++ (re.union (str.to_re "2") (str.to_re "4") (str.to_re "6") (str.to_re "8")) (re.union (str.to_re "0") (str.to_re "4") (str.to_re "8"))) (re.++ (re.union (str.to_re "1") (str.to_re "3") (str.to_re "5") (str.to_re "7") (str.to_re "9")) (re.union (str.to_re "2") (str.to_re "6"))) (re.++ (str.to_re "0") (re.union (str.to_re "4") (str.to_re "8"))))) (re.++ (re.union (str.to_re "0") (str.to_re "2") (str.to_re "4") (str.to_re "6") (str.to_re "8")) (re.union (str.to_re "0") (str.to_re "4") (str.to_re "8"))) (re.++ (re.union (str.to_re "1") (str.to_re "3") (str.to_re "5") (str.to_re "7") (str.to_re "9")) (re.union (str.to_re "2") (str.to_re "6")))) (str.to_re "0229"))) (str.to_re "\u{a}")))))
(assert (not (str.in_re X (re.++ (str.to_re "smrtshpr-cs-\u{13}") (re.* re.allchar) (str.to_re "TPSystem") (re.+ (re.union (str.to_re " ") (str.to_re "\u{9}") (str.to_re "\u{a}") (str.to_re "\u{c}") (str.to_re "\u{d}"))) (str.to_re "dist.atlas-ia.com\u{a}")))))
(assert (not (str.in_re X (re.++ (str.to_re "Subject:") (re.+ (re.union (str.to_re " ") (str.to_re "\u{9}") (str.to_re "\u{a}") (str.to_re "\u{c}") (str.to_re "\u{d}"))) (str.to_re "Yeah!Online%21%21%21\u{a}")))))
(assert (not (str.in_re X (re.++ ((_ re.loop 7 7) (re.range "0" "9")) (str.to_re "\u{a}01") (re.union (str.to_re "0") (str.to_re "1") (str.to_re "2"))))))
(check-sat)

(exit)
